db/data/143002602525532281356213626123478509.z3.out
-------------------
2500.191871196
